c 
c G(k,n,p) graph
c graph gen seed     : 321
c number of vertices : 25
c max number of edges: 500
c number of classes  : 2
c edge density       : 0.800000
c edge probability   : 1.600000
c data structure     : dense
c
c           Graph Stats
c number of vertices  : 25
c nonisolated vertices: 25
c number of edges     : 154
c edge density        : 0.513333
c max degree          : 14
c avg degree          : 12.32
c min degree          : 11
p col 25 154
e 1 3
e 1 4
e 1 8
e 1 9
e 1 10
e 1 12
e 1 13
e 1 14
e 1 15
e 1 16
e 1 18
e 1 19
e 1 20
e 2 5
e 2 6
e 2 7
e 2 11
e 2 17
e 2 21
e 2 22
e 2 23
e 2 24
e 2 25
e 3 4
e 3 8
e 3 9
e 3 10
e 3 12
e 3 13
e 3 14
e 3 15
e 3 16
e 3 18
e 3 19
e 3 20
e 4 8
e 4 9
e 4 10
e 4 12
e 4 13
e 4 14
e 4 15
e 4 16
e 4 18
e 4 19
e 4 20
e 5 6
e 5 7
e 5 11
e 5 17
e 5 21
e 5 22
e 5 23
e 5 24
e 5 25
e 6 7
e 6 11
e 6 17
e 6 21
e 6 22
e 6 23
e 6 24
e 6 25
e 7 11
e 7 17
e 7 21
e 7 22
e 7 23
e 7 24
e 7 25
e 8 9
e 8 10
e 8 12
e 8 13
e 8 14
e 8 15
e 8 16
e 8 18
e 8 19
e 8 20
e 9 10
e 9 12
e 9 13
e 9 14
e 9 15
e 9 16
e 9 18
e 9 19
e 9 20
e 10 12
e 10 13
e 10 14
e 10 15
e 10 16
e 10 18
e 10 19
e 10 20
e 11 17
e 11 21
e 11 22
e 11 23
e 11 24
e 11 25
e 12 13
e 12 14
e 12 15
e 12 16
e 12 18
e 12 19
e 12 20
e 13 14
e 13 15
e 13 16
e 13 18
e 13 19
e 13 20
e 14 15
e 14 16
e 14 18
e 14 19
e 14 20
e 15 16
e 15 18
e 15 19
e 15 20
e 16 18
e 16 19
e 16 20
e 17 21
e 17 22
e 17 23
e 17 24
e 17 25
e 18 19
e 18 20
e 19 20
e 21 22
e 21 23
e 21 24
e 21 25
e 22 23
e 22 24
e 22 25
e 23 24
e 23 25
e 24 25
